N: 500
R: 1000
Capacities: 119918
------
Total value: 119918
Total weight: 119918
Packed Items: [1, 2, 3, 4, 5, 6, 7, 8, 9, 10, 11, 12, 13, 14, 15, 16, 17, 18, 19, 20, 21, 22, 23, 24, 25, 26, 27, 28, 29, 30, 31, 32, 33, 34, 35, 36, 37, 38, 39, 40, 41, 42, 43, 44, 45, 46, 47, 48, 49, 50, 51, 52, 53, 54, 55, 56, 57, 58, 59, 60, 61, 62, 63, 64, 65, 66, 67, 68, 69, 70, 71, 72, 73, 74, 75, 76, 77, 78, 79, 80, 81, 82, 83, 84, 85, 86, 87, 88, 89, 90, 91, 92, 93, 94, 95, 96, 97, 98, 99, 100, 101, 102, 103, 104, 105, 106, 107, 108, 109, 110, 111, 112, 113, 114, 115, 116, 117, 118, 119, 120, 121, 122, 123, 124, 125, 126, 127, 128, 129, 130, 131, 132, 133, 134, 135, 136, 137, 138, 139, 140, 141, 142, 143, 144, 145, 146, 147, 148, 149, 150, 151, 152, 153, 154, 155, 156, 157, 158, 159, 160, 161, 162, 163, 164, 165, 166, 167, 168, 169, 170, 171, 172, 173, 174, 175, 176, 177, 178, 179, 180, 181, 182, 183, 184, 185, 186, 187, 188, 189, 190, 191, 192, 193, 194, 195, 196, 197, 198, 199, 200, 201, 202, 203, 204, 205, 206, 207, 208, 209, 211, 212, 213, 214, 215, 216, 217, 218, 219, 220, 221, 222, 223, 224, 225, 226, 227, 228, 229, 230, 231, 232, 233, 234, 235, 236, 237, 239, 240, 241, 242, 243, 244, 245, 247, 248, 249, 250, 251, 252, 253, 257, 290, 302, 324, 326, ]
Packed Weights: [374, 139, 867, 7, 503, 899, 81, 555, 617, 41, 380, 704, 453, 726, 158, 239, 111, 507, 924, 591, 775, 384, 747, 102, 292, 675, 726, 422, 88, 267, 210, 282, 810, 200, 887, 880, 55, 379, 492, 24, 425, 907, 113, 597, 122, 579, 896, 204, 9, 84, 540, 18, 85, 497, 921, 421, 399, 639, 94, 580, 173, 609, 959, 55, 556, 607, 150, 269, 995, 998, 122, 706, 951, 237, 612, 44, 366, 675, 591, 775, 87, 348, 865, 585, 452, 403, 987, 575, 19, 800, 329, 434, 214, 445, 325, 89, 630, 104, 785, 26, 781, 808, 498, 710, 249, 738, 426, 231, 965, 401, 373, 860, 370, 668, 172, 844, 259, 51, 976, 173, 947, 987, 607, 12, 61, 209, 389, 612, 967, 355, 141, 562, 138, 87, 556, 696, 66, 452, 704, 765, 384, 888, 170, 716, 772, 881, 495, 100, 49, 529, 174, 630, 85, 781, 223, 14, 176, 457, 560, 389, 174, 483, 947, 536, 942, 29, 994, 889, 545, 524, 538, 910, 66, 643, 543, 301, 725, 721, 104, 700, 454, 491, 637, 53, 603, 374, 879, 232, 824, 730, 625, 876, 36, 597, 614, 679, 407, 69, 190, 609, 182, 65, 355, 471, 536, 26, 776, 334, 783, 955, 591, 977, 987, 833, 107, 349, 232, 780, 193, 222, 111, 121, 939, 977, 373, 742, 468, 523, 370, 635, 237, 257, 518, 198, 440, 944, 104, 800, 58, 252, 852, 606, 221, 276, 301, 801, 976, 787, 902, 931, 95, 20, 11, 10, 21, ]
Time Consuming: 0.0